molecule{
0 1
C           -2.796557152229   -11.412553279079     2.149552280564
C            0.982331163045     9.261375802765    -5.158780140726
C            1.965111142703     9.549509720186    -4.234370321987
C            2.356568644355     8.564048930247    -3.265712721028
C            2.543238227914     8.897513759306    -1.867072985365
C            2.332717480704    10.226781089597    -1.365407944115
C            1.668792994863    10.429510813431    -0.171503260014
C            1.187703653453     9.314776451560     0.593710630024
C           -0.099274776195     9.322455612897     1.262336220572
C           -0.990752926295    10.446422170426     1.211604574182
C           -2.350282839446    10.256869619540     1.064808610760
C           -2.893323128568     8.931757922334     0.946443721075
C           -3.926589421640     8.606770993466    -0.015693896630
C           -4.475322895264     9.594907397746    -0.900884264475
C           -4.661133746010     9.303914448843    -2.237038959106
C           -4.315314607021     8.009593243689    -2.751509301102
C           -3.614810557191     7.843382700709    -4.011274364886
C           -3.198292333678     8.955128305238    -4.817842059023
C           -1.971275722682     8.945195685107    -5.453938193081
C           -1.085822054638     7.823331210725    -5.319659516640
C            0.348667570743     7.973439726241    -5.165112886499
C            1.082418261716     6.897374475061    -4.573808252116
C            2.103791621351     7.199526772765    -3.602954479729
C            2.518550570644     6.151209685249    -2.710865214574
C            2.719874248294     6.482626743932    -1.340234879514
C            2.486285580792     7.837245791556    -0.915528091544
C            1.804746040894     8.052368870571     0.335711305371
C            1.423744590095     6.904438938399     1.105688163158
C            0.158864899764     6.911413576791     1.759846037534
C           -0.678339236396     8.067134017359     1.621820591369
C           -2.095416959078     7.864772695518     1.455070194719
C           -2.589134057798     6.514386081884     1.402198659842
C           -3.591503318207     6.190986408081     0.443982841878
C           -4.068368815424     7.241186888543    -0.413061254445
C           -4.272023493591     6.937108429684    -1.806279949710
C           -4.010104403758     5.597031910163    -2.252865885624
C           -3.349288052047     5.436971622733    -3.506456754694
C           -2.954576431791     6.602143312417    -4.246832888572
C           -1.674073019250     6.592234823137    -4.908028192049
C           -0.854862415214     5.418293423660    -4.789188960189
C            0.551237570733     5.563252195242    -4.604506278524
C            1.308150026324     4.467253704844    -4.046919474329
C            2.312204325300     4.772784362240    -3.069101110167
C            2.730523211224     3.734351181612    -2.180503012314
C            2.959080183292     4.078677006472    -0.802518738266
C            2.729458450267     5.424860460643    -0.374818952759
C            2.080282258028     5.648011074144     0.884228107572
C            1.713137044066     4.521787204801     1.676057208110
C            0.434384794458     4.527927510509     2.335681870977
C           -0.413613334765     5.661309965069     2.171033719065
C           -1.817925732077     5.450117363798     1.973821716764
C           -2.310032473977     4.107353530148     1.914794304261
C           -3.300856195539     3.770146193028     0.928401838976
C           -3.774243536008     4.811949693711     0.069177401331
C           -4.001757513644     4.506370168485    -1.310664014294
C           -3.760053504205     3.168845646198    -1.770672292138
C           -3.154515351080     3.027497246279    -3.064424744560
C           -2.742182826771     4.178746972228    -3.798499765859
C           -1.459153574061     4.171580648459    -4.449349150587
C           -0.631374530694     3.014543563653    -4.338992338218
C            0.782824134246     3.137463855781    -4.102939920455
C            1.503073850345     2.031012644049    -3.500627175958
C            2.491427487881     2.352392412959    -2.515498745778
C            2.915451148344     1.318183892004    -1.612840425527
C            3.185302035755     1.675930917143    -0.250826622881
C            2.970372869050     3.032407615477     0.170222133372
C            2.352453059671     3.264708797252     1.439123296766
C            1.990180338158     2.136771112514     2.244131098079
C            0.716995688417     2.141700195627     2.898156379440
C           -0.140041640097     3.275830768723     2.721135672119
C           -1.533284458729     3.053500841226     2.487202746657
C           -2.008112654644     1.697887388726     2.412019378565
C           -2.957915731674     1.346100597267     1.400735272998
C           -3.438733229438     2.390571301135     0.535703745955
C           -3.675916380149     2.071227604621    -0.834428363629
C           -3.397293654073     0.713025624758    -1.311998103807
C           -2.899636569020     0.632898955702    -2.624962612926
C           -2.544118472640     1.775462753850    -3.356620437304
C           -1.245703527402     1.790846198158    -4.000222193361
C           -0.438954251105     0.627363050369    -3.825703849124
C            0.974907133525     0.675893562524    -3.537426062494
C            1.697966525577    -0.427058301005    -2.922203159110
C            2.693622796546    -0.067949110557    -1.937319298496
C            3.205655434983    -1.067196408430    -1.030378512197
C            3.472213621420    -0.699284195539     0.326903465925
C            3.242251120346     0.648420344350     0.736964997926
C            2.637897347206     0.885854070683     2.019332723106
C            2.276998430225    -0.238130742116     2.820666305574
C            1.002527048035    -0.234165141407     3.472224930532
C            0.148444983206     0.894894285564     3.295237054133
C           -1.246740991745     0.664677702652     3.037301786022
C           -1.723086625148    -0.678795561625     2.985760010898
C           -2.671670893683    -1.041879141891     1.973640193975
C           -3.101728140793    -0.041567396017     1.030531521724
C           -3.322396301310    -0.403071508422    -0.351779927256
C           -3.095765747604    -1.798438343984    -0.698318639240
C           -2.467131314517    -2.213576038213    -1.930616539219
C           -1.242783564388    -0.391207171784    -3.353126651174
C           -1.864302657130    -1.307689839839    -2.781105038456
C           -0.045587165531    -2.243241538491    -3.219888203602
C            1.271769225489    -1.838558134579    -2.934461662773
C            2.115732674475    -2.860899761263    -2.307611483182
C            3.083680785341    -2.467780702622    -1.336153339337
C            3.616415597679    -3.451019561342    -0.427428074483
C            3.836401629910    -3.072089988803     0.942489876438
C            3.551360608270    -1.726961859613     1.330155390388
C            2.928099984820    -1.494136074637     2.596090893021
C            2.573575313497    -2.616657623360     3.409137476534
C            1.290919532599    -2.613516909919     4.061097433478
C            0.431560762287    -1.486126493927     3.870064543123
C           -0.960637593308    -1.711487570931     3.631014110331
C           -1.449531257496    -3.053617669697     3.628621339016
C           -2.432924989950    -3.424608749734     2.646364535303
C           -2.858827640907    -2.436817979004     1.687135518497
C           -3.077065668973    -2.829687920899     0.327322527016
C           -2.840619038716    -4.221675655449    -0.008136400447
C           -2.183236184253    -4.547294379239    -1.245803040920
C           -1.833308524658    -3.480404345623    -2.100286218400
C           -0.553635578344    -3.475351505915    -2.781500331843
C            0.328390063314    -4.566219879916    -2.540296951162
C            1.710675642898    -4.247929515249    -2.322104078037
C            2.515513755477    -5.252183272597    -1.687695834118
C            3.494940514268    -4.844894683787    -0.726350949734
C            3.987745046394    -5.825040654920     0.207394055602
C            4.176425776859    -5.444235526595     1.566429100252
C            3.890561529537    -4.092006545555     1.945261635726
C            3.228990699442    -3.864174660495     3.196774308559
C            2.855237820936    -4.997862260466     3.993826070333
C            1.583945859209    -4.996040160394     4.635769351871
C            0.726335127049    -3.857777343999     4.466400733846
C           -0.675439884373    -4.078955192572     4.259893164317
C           -1.157470473032    -5.427147747922     4.265935822834
C           -2.149849102239    -5.797522227349     3.313545852635
C           -2.613457661919    -4.814986601969     2.372386978640
C           -2.813403934444    -5.223757286319     1.012732190188
C           -2.523688808469    -6.596417815404     0.666830505286
C           -1.836007777978    -6.877068313543    -0.548447360530
C           -1.494409778658    -5.786810688980    -1.403585306174
C           -0.214259589600    -5.794491753155    -2.058602453955
C            0.666446903216    -6.888681857227    -1.809644726168
C            2.057358515896    -6.617865933982    -1.648515349025
C            2.866746595198    -7.634549436697    -1.036357195050
C            3.871729249540    -7.226013842726    -0.089165430905
C            4.402915520988    -8.194693647064     0.817538473824
C            4.577276247698    -7.806075538964     2.202229997945
C            4.227018239855    -6.473544864484     2.570351931999
C            3.530843832712    -6.249506282656     3.812272004549
C            3.192860158111    -7.363861230188     4.639457444267
C            1.894051163427    -7.366043962308     5.285002986054
C            1.031657732346    -6.247706989761     5.067209318675
C           -0.381385439763    -6.465011318225     4.890186239939
C           -0.893860853822    -7.795257733099     4.947769787934
C           -1.925311830128    -8.166125357466     4.002023544006
C           -2.337982578987    -7.194389963257     3.044662940142
C           -2.524089370869    -7.614309745236     1.679936049442
C           -2.301144706514    -8.986894322753     1.329957027014
C           -1.553882009305    -9.250844856698     0.110599780330
C           -1.155003262061    -8.132779999821    -0.687454008468
C            0.132724132992    -8.134647867352    -1.334882250143
C            1.003010562390    -9.251179658805    -1.172165560844
C            2.423645179064    -8.993680340007    -1.034953948782
C            3.323417699010    -9.961695782833    -0.475651914796
C            4.292982661032    -9.571627661873     0.425616462249
C            4.642089092778    -8.772775504643     3.263502438606
C            3.962820074777    -8.560056174203     4.446187077870
C            1.276859935424    -8.568187218441     5.768625463247
C           -0.078954726529    -8.775960729049     5.606868189521
C           -2.267135371038    -9.524981417720     3.700937718574
C           -2.477768994116    -9.953342032863     2.400368763493
C           -0.849069429523   -10.478914347573    -0.142480163197
C            0.390078243353   -10.476868340830    -0.755153612452
H           -1.893772509768   -12.051437466961     2.153096584478
H           -3.457007965291   -11.791657639157     2.947671952199
H           -3.312872323058   -11.561629007374     1.187863276653
H            0.587024691672    10.068182754379    -5.783687400931
H            2.327074992593    10.578360068909    -4.145684966236
H            2.556585748415    11.090703118511    -1.998463302385
H            1.386077026743    11.448535680661     0.110038997973
H           -0.587437241675    11.461492393695     1.143535707769
H           -2.988665921010    11.126498949391     0.881912279549
H           -4.599385840215    10.627166955181    -0.559580608171
H           -4.929333993057    10.111866243819    -2.924777125724
H           -3.782337188510     9.880491838422    -4.815175077649
H           -1.620482033558     9.862885268133    -5.935693660031
H            3.150073817505   -11.029461239861    -0.641696797819
H            4.866337304066   -10.338849932179     0.954857452913
H            5.098362639617    -9.750935532181     3.083846861111
H            3.900715049010    -9.374180992440     5.174878602094
H            1.898146113717    -9.392414753877     6.132086523978
H           -0.495695190129    -9.760579507049     5.840251110581
H           -2.258821897647   -10.275923117864     4.499826156319
H           -1.217675812774   -11.419197639036     0.268324235987
H            0.957772572118   -11.411808173467    -0.790659982747
}
memory 20 GB
set opt_type ts
set basis 6-31G(d)
set reference rhf
optimize('pbe')
