molecule{
C           -2.635172931239   -11.523925381407     1.091472333223
C            0.878148350426     9.492231906097    -4.553253889780
C            1.796199721424     9.782063370819    -3.566717157182
C            2.201169649599     8.768745132883    -2.629382829569
C            2.358050449141     9.041779058476    -1.216829070402
C            2.108054176107    10.340684212096    -0.654001966313
C            1.433829846025    10.465597610225     0.542781925879
C            0.972273445192     9.298400064242     1.243689324281
C           -0.335203097319     9.235219297885     1.860813967699
C           -1.257180545036    10.337328720582     1.820980253946
C           -2.596095985689    10.118724658341     1.573594724976
C           -3.086722461590     8.785980897987     1.349181677688
C           -4.050912342117     8.482728607322     0.314523921898
C           -4.582837513518     9.494272742109    -0.557793253712
C           -4.732037287915     9.245766065973    -1.905912255212
C           -4.361756983598     7.970367413949    -2.456774271573
C           -3.654020054942     7.846529700491    -3.711976240385
C           -3.266026736198     8.989728627578    -4.492908100430
C           -2.019690901974     9.041958582526    -5.080437515613
C           -1.091295149382     7.955032071572    -4.918891027734
C            0.313698927863     8.173729724116    -4.658334693123
C            1.062280320930     7.107136666552    -4.069536911203
C            2.021080576612     7.412409065802    -3.036376780706
C            2.455840235992     6.346571490429    -2.178423478450
C            2.623033991397     6.615885289523    -0.790256560123
C            2.334184911722     7.937727610911    -0.311015752048
C            1.631898000884     8.068481081832     0.940457469170
C            1.262428517455     6.869623003186     1.639249536642
C           -0.026692915250     6.806292004740     2.240285290748
C           -0.891621768972     7.946018890305     2.124503963700
C           -2.289486804149     7.716751734115     1.860620274606
C           -2.739319452604     6.360118428469     1.720498196663
C           -3.687163947394     6.061337517873     0.700854032299
C           -4.150556547105     7.130678107011    -0.137629634412
C           -4.313221230172     6.870604640932    -1.545530544736
C           -4.011831901998     5.554326401825    -2.032424408899
C           -3.318611500023     5.432801865548    -3.270509577106
C           -2.950465631712     6.629366629757    -3.969372876944
C           -1.647508304056     6.683382723126    -4.582014564187
C           -0.788689762080     5.538633561100    -4.454871086699
C            0.592444534536     5.757165698622    -4.184849450955
C            1.362799428849     4.675645724717    -3.627328354417
C            2.319485209675     4.981638997903    -2.604824759513
C            2.782350190832     3.931428242312    -1.753664633910
C            2.961584391314     4.203353194965    -0.352254252924
C            2.656391909558     5.512826424941     0.129966876323
C            1.961256956678     5.642788041540     1.375210967542
C            1.598057345289     4.456291458705     2.086348579841
C            0.293540364578     4.391236655347     2.688031823748
C           -0.578187260873     5.516891562072     2.553325211300
C           -1.964995538505     5.287691313158     2.281214120266
C           -2.424734632616     3.939607338560     2.147216458225
C           -3.375926434259     3.636480966983     1.112877317060
C           -3.830580231222     4.697523012521     0.268291573536
C           -4.003399551038     4.439249295748    -1.127259849776
C           -3.716319444530     3.127803149887    -1.627520459562
C           -3.037408973423     3.004653909810    -2.885539689433
C           -2.647480996774     4.197977210311    -3.568488080797
C           -1.353755881261     4.248891995652    -4.172157433637
C           -0.497720782550     3.101204008531    -4.053362099854
C            0.898038240706     3.332749341212    -3.758587563887
C            1.658765411104     2.267867037102    -3.177907777048
C            2.627016884004     2.571422656980    -2.170078389047
C            3.094472739678     1.513226978028    -1.316588536566
C            3.277739891570     1.782773576698     0.077289744342
C            2.979534603429     3.101431391835     0.563774718978
C            2.285138239844     3.230073423405     1.808089791633
C            1.913706177608     2.033169218038     2.513703133268
C            0.614029737201     1.968533880624     3.108633288373
C           -0.260180739312     3.102164776207     2.978845244809
C           -1.644072726170     2.872341209316     2.696766601010
C           -2.097268126389     1.516550994529     2.547987003971
C           -3.030034953669     1.215114913192     1.510196677179
C           -3.492709503387     2.279062193635     0.666472650896
C           -3.663852152154     2.019684596132    -0.727861586462
C           -3.365793765269     0.701819441168    -1.242381637616
C           -2.783241101890     0.575442428271    -2.519786454167
C           -2.385101302315     1.768425135956    -3.196949341799
C           -1.066404678499     1.826278866284    -3.773463977103
C           0.17413840494878952     0.15656339231767014    -3.4157658799199013
C            0.8139757967622103     1.4390620944403298    -3.288799873749
C            1.966907647638    -0.147737947088    -2.745082402041
C            2.951825506406     0.156219038055    -1.740981013062
C            3.408387457232    -0.899984808319    -0.893775975314
C            3.592400091447    -0.633526627552     0.500597742391
C            3.304614409273     0.680721298243     0.991867855946
C            2.605914967090     0.808350437551     2.241010534031
C            2.228186559658    -0.386134707119     2.937108562885
C            0.928392921106    -0.451457483367     3.531705774558
C            0.058599246658     0.680872182439     3.404949251488
C           -1.325965574277     0.450836721903     3.115929513299
C           -1.783301318694    -0.899154566518     2.969568788528
C           -2.716276062350    -1.201541841946     1.932239536631
C           -3.156478963933    -0.144928084879     1.063261251635
C           -3.341089817730    -0.411900333374    -0.324564663467
C           -3.051121802122    -1.737958586763    -0.816085428141
C           -2.462851823487    -1.905928753077    -2.086002154443
C           -2.245950983793    -0.745544229933    -3.040840114840
C           -0.740107907368    -0.602085820771    -3.334551646051
C            0.112161112637    -1.714891097644    -3.158314970200
C            1.497693949878    -1.490637278835    -2.865798859928
C            2.285201028035    -2.564884201458    -2.329373945402
C            3.255281755643    -2.263541812741    -1.322667819352
C            3.726167227707    -3.321899969492    -0.482976489173
C            3.907375633312    -3.056037361506     0.919385539439
C            3.610506156180    -1.743782219929     1.412558430095
C            2.915698326407    -1.617882506612     2.656926598819
C            2.542690678369    -2.810836848838     3.357904062378
C            1.237327583883    -2.875123228414     3.957797426216
C            0.369254784225    -1.742690094837     3.825477375068
C           -1.014827808139    -1.970432681795     3.542184513895
C           -1.481997534901    -3.317659318348     3.414069056824
C           -2.434050442426    -3.621050677005     2.380609091564
C           -2.865073336788    -2.565130602333     1.512907374108
C           -3.036827810786    -2.838695892804     0.121165324374
C           -2.776489758794    -4.160594637862    -0.353888717569
C           -2.094691287617    -4.301141692427    -1.608448461602
C           -1.753592468085    -3.119268295174    -2.341846978287
C           -0.436507364549    -3.037721411465    -2.919655980646
C            0.441493684707    -4.149341551017    -2.778543922245
C            1.836965212729    -3.915717481747    -2.484799672455
C            2.614403730687    -4.977315442440    -1.932672157090
C            3.575038551456    -4.676226157532    -0.912384611415
C            4.029600903760    -5.740347639025    -0.061254812998
C            4.199988228359    -5.479475986306     1.328071916104
C            3.916862102890    -4.161122507895     1.824462661225
C            3.220547688047    -4.036809266467     3.069656167433
C            2.836523200791    -5.238600364985     3.756766322829
C            1.545365005705    -5.301917826627     4.353636345648
C            0.678694554217    -4.160744138747     4.242670416575
C           -0.708430434123    -4.386051178532     3.968928981954
C           -1.167790445833    -5.739845295756     3.830540246089
C           -2.116214997684    -6.039506768005     2.811620207251
C           -2.576377724812    -4.979671045047     1.958608721998
C           -2.751003382453    -5.257360943069     0.567777988942
C           -2.446565006732    -6.578045149662     0.088968201437
C           -1.750169082978    -6.708508840261    -1.144999422335
C           -1.391382350999    -5.518375153714    -1.866602336111
C           -0.098247290349    -5.444236794879    -2.467640861008
C            0.779178557655    -6.570567606119    -2.321161139972
C            2.159480088656    -6.337646117897    -2.058623115819
C            2.945288347169    -7.409503216187    -1.520718789693
C            3.908977182916    -7.104201218772    -0.492666483562
C            4.404075007879    -8.156820223731     0.334690393141
C            4.566851325084    -7.893118778320     1.748192707595
C            4.229065040856    -6.592907319848     2.233353484135
C            3.524400978191    -6.469425137181     3.484371960248
C            3.176697287799    -7.651812775004     4.205929248697
C            1.864458193703    -7.717054433831     4.812598751302
C            0.995410451072    -6.593501782096     4.656395883382
C           -0.401937508598    -6.818571944749     4.388587100666
C           -0.887251394907    -8.159355621505     4.290608355477
C           -1.861252495097    -8.458091144166     3.266695714760
C           -2.270122269734    -7.403181659002     2.398573366274
C           -2.437426047162    -7.689106023331     0.997629706629
C           -2.197525213867    -9.016272580665     0.511906422865
C           -1.469270489833    -9.141388129998    -0.735215230762
C           -1.066883671217    -7.939610888297    -1.407796648126
C            0.236398550265    -7.865732265101    -2.017616679283
C            1.106541664837    -8.994807547634    -1.940233068079
C            2.508794511426    -8.760999391783    -1.683672532806
C            3.375848897440    -9.786435116723    -1.169640445659
C            4.298678073514    -9.492843013099    -0.188639731198
C            4.625681927053    -8.947715324587     2.723533216921
C            3.948874630071    -8.830351026800     3.919364897649
C            1.247365870829    -8.966464059500     5.165939789479
C           -0.090617125920    -9.182063066827     4.910454049287
C           -2.164905721456    -9.787443085176     2.821564418550
C           -2.356089815522   -10.088731563126     1.483645574091
C           -0.773795953749   -10.337959384121    -1.138005350209
C            0.477299140318   -10.265580973575    -1.713720695188
H           -1.710031187009   -12.117291664679     0.968326342407
H           -3.227838781621   -12.017971372654     1.879641338924
H           -3.205525148097   -11.590732957385     0.150792961246
H            0.475287543071    10.308420992871    -5.160755124217
H            2.102771685628    10.821364254659    -3.414013531403
H            2.317116551513    11.239996195266    -1.241304684937
H            1.123550433412    11.460776460885     0.875635975390
H           -0.881326302084    11.364898079134     1.839396782427
H           -3.251505379452    10.978066361039     1.402181528785
H           -4.731484278050    10.512691346442    -0.186136205898
H           -4.995430421451    10.072658772908    -2.572557636704
H           -3.895779739206     9.884617666035    -4.502570082981
H           -1.689693067855     9.977195009762    -5.542892479085
H            3.208565356032   -10.831756586864    -1.447006116212
H            4.845396850840   -10.311280707035     0.289571218847
H            5.081822447709    -9.907834378245     2.463659655100
H            3.883772342407    -9.700207789545     4.580088060704
H            1.866145223683    -9.805645673014     5.497965425333
H           -0.502337736140   -10.187491028963     5.042073041124
H           -2.150725176975   -10.614801704374     3.540815468743
H           -1.168532242538   -11.319859611572    -0.876229708097
H            1.040322101806   -11.190697257063    -1.871900998189
H           -2.777902794023    -0.980792280865    -3.993788390542
}
memory 65 GB
set basis 6-31G(d)
set reference uhf   
set opt_type ts
optimize('pbe')
