molecule{
C           -3.310869583674   -11.306501564515     1.832288449484
C            1.656926861765     9.218283138474    -5.025805378029
C            2.576746861004     9.474900044162    -4.033429850812
C            2.856482942932     8.477626869096    -3.034566893717
C            2.954493371612     8.810648804341    -1.630558788306
C            2.752734650231    10.150502761280    -1.147721861133
C            2.013095878131    10.378907165624    -0.005881564286
C            1.444898550012     9.280720813792     0.726570880771
C            0.113798020337     9.326796507781     1.292859704506
C           -0.740737196688    10.475757239502     1.172065879319
C           -2.087875140479    10.322173809054     0.919027063111
C           -2.655429760772     9.010166106109     0.757400277287
C           -3.621518010268     8.713190285562    -0.276152205023
C           -4.084604495358     9.720988348303    -1.192879871734
C           -4.182256214439     9.439249410335    -2.537460208655
C           -3.835049751587     8.134114331461    -3.032338221963
C           -3.054472085758     7.951835150935    -4.234699558144
C           -2.542564005053     9.053721985491    -5.005152700387
C           -1.274195348242     9.003863087956    -5.545349359087
C           -0.437205079636     7.850333016802    -5.345458780626
C            0.979094202666     7.951158547323    -5.078005988730
C            1.629380880794     6.848051089001    -4.435028699043
C            2.581880527288     7.120550163918    -3.387396136762
C            2.889753542594     6.064220754709    -2.463383059629
C            3.016565415953     6.394929640216    -1.084387238437
C            2.802649226367     7.757509406923    -0.679824049662
C            2.045335346011     7.999954003035     0.521386245255
C            1.578189576021     6.868744912242     1.267767402177
C            0.267084658296     6.913352121381     1.821061421190
C           -0.525889418797     8.088385262309     1.610954740256
C           -1.928638484336     7.922882764950     1.327807101330
C           -2.449356509557     6.586145305610     1.230177210853
C           -3.380915518754     6.288782187234     0.195277914131
C           -3.773725605025     7.352513359587    -0.686794025411
C           -3.895920255057     7.055353787703    -2.091940941509
C           -3.648613906771     5.710885817278    -2.527576140935
C           -2.914140816714     5.534675036890    -3.735630350828
C           -2.424459355499     6.686951811178    -4.434377871317
C           -1.097591389081     6.635598656234    -4.994458245161
C           -0.330538051345     5.435592550975    -4.816448804475
C            1.057913843307     5.534663296892    -4.510760929350
C            1.722072652306     4.413062342273    -3.879382193614
C            2.652077449247     4.691777118567    -2.828463794717
C            2.969420069906     3.643577027873    -1.908347911332
C            3.136744959456     3.985555301224    -0.522203272440
C            2.929346736790     5.342177144929    -0.114973503116
C            2.210913753460     5.591416579245     1.097644408908
C            1.757858531625     4.479484454284     1.870501365408
C            0.433968430236     4.524352120848     2.426920692453
C           -0.369677513938     5.678948122234     2.184760072228
C           -1.753044586390     5.503303502019     1.861594885216
C           -2.270425894955     4.171902956362     1.758005715629
C           -3.178992323079     3.860165960869     0.687515591775
C           -3.567433763144     4.914635504381    -0.198729163690
C           -3.726035583240     4.613742205193    -1.587644727128
C           -3.500743822438     3.271153757832    -2.038238814388
C           -2.848624209276     3.111170783104    -3.308731971470
C           -2.329092707991     4.254870748243    -3.995522945640
C           -1.004747044631     4.207173607613    -4.537010618901
C           -0.224668231702     3.016253476147    -4.358313510507
C            1.157482095155     3.101968930761    -3.974738405741
C            1.742756233262     1.977697632022    -3.279252607441
C            2.688176006151     2.272658189715    -2.247355864473
C            3.031415167750     1.234426840331    -1.317377880978
C            3.246977398509     1.582789435001     0.051368432150
C            3.059544530652     2.946623128713     0.456491636722
C            2.375764249521     3.202489983737     1.685898112754
C            1.922945449055     2.085672981353     2.463326537704
C            0.605139822405     2.130178351105     3.015031028739
C           -0.202643163490     3.289029250876     2.767157381074
C           -1.574064035478     3.104574515332     2.404309984526
C           -2.071632566004     1.763531712707     2.283574168431
C           -2.926509539452     1.439915476095     1.185773472705
C           -3.312140242026     2.485237842145     0.278151506829
C           -3.462472575383     2.168814972715    -1.108148198665
C           -3.131899117008     0.806116316607    -1.554498156119
C           -2.550901449992     0.689981517204    -2.831118912166
C           -2.241020040201     1.863069631096    -3.559487408587
C           -0.908524565716     1.837069287684    -4.050938024546
C           -0.239523276960     0.606854908250    -3.682537341900
C            1.155009060079     0.638734740142    -3.335727193185
C            1.845535706583    -0.464132541875    -2.698067148415
C            2.786528928032    -0.140095960056    -1.657644000536
C            3.215738113427    -1.155832993453    -0.730112300060
C            3.422119236206    -0.803676980691     0.638893868945
C            3.213083514796     0.551986052169     1.041613865623
C            2.542267464204     0.808902892563     2.280421253881
C            2.087733972597    -0.309586497777     3.050101002828
C            0.771039338130    -0.264294431277     3.603925279545
C           -0.031232026766     0.895118505563     3.357287565642
C           -1.398406047521     0.709224733440     2.975933811253
C           -1.904918324823    -0.622764145515     2.867636399384
C           -2.755214112188    -0.950006485644     1.768669728797
C           -3.063462063458     0.061079555223     0.796318592268
C           -3.165290256999    -0.283531865530    -0.593471315634
C           -2.967202545933    -1.671422887279    -0.967302987933
C           -2.535603686391    -2.110925181555    -2.248705225636
C           -2.073806364309    -1.452323177312    -3.460835195291
C           -1.201131469010    -0.402406252002    -3.569972145175
C            0.130079081216    -2.178032068212    -3.287653684262
C            1.392616968901    -1.847224770178    -2.784547048930
C            2.146017153978    -2.892226155302    -2.095684829779
C            3.058314363241    -2.544356074257    -1.059093070531
C            3.494358543621    -3.552965416539    -0.131703700453
C            3.650690079165    -3.192821279496     1.249429789699
C            3.402225942263    -1.839099899106     1.635842648855
C            2.709256716351    -1.588730750465     2.862400034152
C            2.254386246199    -2.707108353521     3.632777264009
C            0.928801184766    -2.662505639091     4.184979184531
C            0.128675107830    -1.501484285233     3.941563693867
C           -1.241781456437    -1.681880062601     3.573882178960
C           -1.769854836802    -3.007750537999     3.502927154051
C           -2.661939935327    -3.337258132438     2.426104956552
C           -2.951348752013    -2.331517645482     1.440417349455
C           -3.070685277901    -2.700408422050     0.065972433349
C           -2.933004884906    -4.098116111732    -0.258342544370
C           -2.243189065654    -4.438326996597    -1.469399609499
C           -1.870674967853    -3.395635926048    -2.342049127054
C           -0.504872695275    -3.387328892209    -2.865527468322
C            0.329125327693    -4.500970632858    -2.528406726733
C            1.697115621683    -4.252198131245    -2.171306311759
C            2.420444419886    -5.293115372442    -1.496899733415
C            3.339726181068    -4.936953177754    -0.461919589755
C            3.735468362581    -5.946014730311     0.486933279553
C            3.853971510214    -5.586459313153     1.859940557980
C            3.597637423866    -4.226735707649     2.240304002280
C            2.873592882368    -3.981540717997     3.449237778442
C            2.402530186439    -5.109688982283     4.203954072748
C            1.087228298298    -5.066467664378     4.748016684930
C            0.287373225779    -3.895426609665     4.520515827313
C           -1.093392216186    -4.066973786057     4.188872793905
C           -1.621743661970    -5.399086596234     4.132444428763
C           -2.539530921519    -5.725483239224     3.093611058368
C           -2.878312635507    -4.718343197643     2.123948560013
C           -3.016283032288    -5.105792796219     0.756130949515
C           -2.776595559819    -6.491828299283     0.417599562810
C           -2.022908051916    -6.787328326306    -0.752817983709
C           -1.579319875276    -5.702148087789    -1.570312133317
C           -0.269566191256    -5.739376486852    -2.127242704515
C            0.556468667474    -6.870255389586    -1.832368315484
C            1.932725952571    -6.648871331942    -1.536027455660
C            2.656603203167    -7.696472461944    -0.874964001352
C            3.592127436665    -7.336176723456     0.159710935359
C            4.016933504714    -8.335551680387     1.090886316736
C            4.114317218554    -7.970493747479     2.484801735112
C            3.799839466502    -6.626559752718     2.849996032705
C            3.036936552650    -6.385553531507     4.048240154263
C            2.594064926227    -7.497785123196     4.830849459864
C            1.257155510873    -7.455773896081     5.379033650804
C            0.456215430544    -6.301826040874     5.112034757648
C           -0.941800415886    -6.467972231212     4.809204483466
C           -1.501897311382    -7.782463556228     4.799969149583
C           -2.462463261895    -8.104969920178     3.773293386516
C           -2.765833736050    -7.110117997571     2.797752366033
C           -2.876622914763    -7.511988259403     1.418934381034
C           -2.671553776243    -8.892370292896     1.072436344266
C           -1.868417081894    -9.173430374970    -0.097519945484
C           -1.379656336259    -8.062692242265    -0.859456254751
C           -0.052086690918    -8.101770957800    -1.416705432912
C            0.767628638614    -9.249075113742    -1.191548198204
C            2.171976187969    -9.042127864946    -0.930844265513
C            2.991485665322   -10.049790628489    -0.312419159219
C            3.895362167461    -9.706180574896     0.668381470909
C            4.072329477757    -8.952055781254     3.536799391883
C            3.329076958144    -8.724254555292     4.674991754362
C            0.558830097143    -8.641599574398     5.797055389702
C           -0.782572506420    -8.798999920997     5.519914067423
C           -2.832565676494    -9.451218755601     3.434205328629
C           -2.960602281825    -9.862217572740     2.120560948074
C           -1.198147107966   -10.429116824253    -0.332008129914
C            0.078522062270   -10.463659799624    -0.852915388493
H           -2.424202854591   -11.967587542285     1.838927027999
H           -3.996511373465   -11.686732982518     2.608298615483
H           -3.809547294359   -11.422181170316     0.856183445353
H            1.342031848582    10.032993768868    -5.685266827667
H            2.975919406518    10.487718562946    -3.922995188419
H            3.051951536683    11.003424504438    -1.764250255384
H            1.744109936229    11.407058382982     0.255158264363
H           -0.305489540136    11.479287172813     1.138455870288
H           -2.688197197594    11.208070961923     0.691116868634
H           -4.214181190279    10.752808340757    -0.852384572685
H           -4.386843829032    10.252805763799    -3.240370211899
H           -3.099220736448     9.994921601547    -5.047719135784
H           -0.858224554094     9.906908016220    -6.002349275906
H            2.801107758791   -11.108106134265    -0.516391033208
H            4.406782513842   -10.497262468278     1.225066513452
H            4.505688116499    -9.943732346180     3.375382235214
H            3.188777254815    -9.539908272644     5.390910990758
H            1.118686824092    -9.487298952786     6.208006784753
H           -1.256304714832    -9.766343410442     5.712962180232
H           -2.921981939987   -10.203765252213     4.226516422134
H           -1.640980597311   -11.362968832749     0.015350413062
H            0.610864301786   -11.419503819118    -0.880517964673
H           -2.122343844962    -2.119375520272    -4.348024859351  
}
memory 65 GB
set basis 6-31G(d)
set reference uhf
set opt_type ts
optimize('pbe')
