molecule{
0 2
C           -2.375525097209   -11.902987742173     1.563045596161
C            0.109736613434     9.781915264170    -5.030480994389
C            1.064946555226    10.198026665664    -3.997082519720
C            1.593094676373     9.172642432022    -3.035246227669
C            1.734668472468     9.509192152131    -1.582397749555
C            1.349265006733    10.872030540061    -1.084262159741
C            0.619383610077    10.989093768415     0.184034058140
C            0.280476136767     9.742718232723     0.949437240394
C           -1.062027532780     9.600902061139     1.598507124910
C           -2.074564866071    10.703274648955     1.480557352809
C           -3.478126995474    10.359974217800     1.223478809442
C           -3.859939189403     8.914666284021     1.082366988442
C           -4.831155466659     8.492091977037     0.024318362517
C           -5.428389564401     9.510550529019    -0.903465702104
C           -5.577973002504     9.177834511134    -2.325165947871
C           -5.128172974389     7.830127431290    -2.811557548087
C           -4.383315817159     7.709866320706    -4.105325638263
C           -4.089871095778     8.935150284077    -4.922397538631
C           -2.767579742375     9.078492679160    -5.542688596432
C           -1.748456540601     7.992813206966    -5.348080332920
C           -0.315831598062     8.343105520952    -5.092104932050
C            0.577623102459     7.312346761118    -4.488638547166
C            1.554550818026     7.737330559326    -3.437092899683
C            2.109340369943     6.704097943091    -2.510638222424
C            2.249601579359     7.039286376922    -1.063995956722
C            1.830789476610     8.395306778523    -0.595775862639
C            1.087462735504     8.514350638082     0.697433862487
C            0.792322944681     7.272641924848     1.475331831633
C           -0.547048129997     7.129805278843     2.116225748857
C           -1.541035992159     8.234775364092     1.957352036260
C           -2.971104905354     7.883908930596     1.691588454786
C           -3.355443487649     6.442415852366     1.603126722415
C           -4.327026504707     6.021458369425     0.553333669590
C           -4.877925570312     7.055815659443    -0.374057165687
C           -5.029932470928     6.717100567120    -1.823665632023
C           -4.617298167283     5.359151250486    -2.291948443496
C           -3.876013989503     5.239305247409    -3.581270161876
C           -3.573680789373     6.481848691611    -4.353821793540
C           -2.227058492018     6.626587965507    -4.990081350524
C           -1.233054260435     5.521299898408    -4.832575920227
C            0.194479154325     5.870769925195    -4.576435326779
C            1.092616142244     4.839732885041    -3.966286878705
C            2.067617403636     5.264882095288    -2.916632221517
C            2.623260684942     4.233880204283    -1.990066669035
C            2.763617764061     4.569646173665    -0.540215158069
C            2.345790131656     5.924358476049    -0.071440254223
C            1.605241330274     6.043209699927     1.219960744848
C            1.306645210990     4.801455522788     1.994273011980
C           -0.038485614478     4.656126796766     2.629676412728
C           -1.032101007990     5.760141813177     2.473443638623
C           -2.460887935757     5.411120265407     2.214946794588
C           -2.846717534755     3.970436270122     2.127027419237
C           -3.821518278843     3.548620673645     1.075937463214
C           -4.372230410095     4.582120363614     0.148097918751
C           -4.519090248738     4.245377321643    -1.298379721418
C           -4.105013303998     2.888684260617    -1.767502535082
C           -3.363588552124     2.768363537612    -3.059509118852
C           -3.060494261846     4.009875126075    -3.832602783986
C           -1.717941811824     4.152895631221    -4.471531836105
C           -0.722143396613     3.046159700448    -4.318453700908
C            0.709261381494     3.399518725389    -4.052490612572
C            1.606397481483     2.372209495509    -3.441278336574
C            2.583409187816     2.796894106007    -2.395324665531
C            3.139585129796     1.763247033762    -1.467570482557
C            3.279334043578     2.098823340823    -0.019255890370
C            2.860347854025     3.455426475960     0.450141680553
C            2.119631646443     3.574001050657     1.740993868747
C            1.818918545340     2.330238176169     2.514973224167
C            0.473776307704     2.184107432594     3.146223590389
C           -0.521801014045     3.288017627895     2.986333102541
C           -1.951478213146     2.939390929572     2.733560205332
C           -2.338223788899     1.496349535408     2.646662457388
C           -3.319057966785     1.075192205274     1.602555681727
C           -3.865443999213     2.111105174884     0.670809011663
C           -4.000085852627     1.776840219293    -0.777166107386
C           -3.573435832230     0.420939984792    -1.247175635830
C           -2.790501449850     0.314599600078    -2.501252555654
C           -2.550417907092     1.541764282513    -3.311397939109
C           -1.209897831599     1.681552023972    -3.967052087356
C           -0.214335218365     0.578964342059    -3.742367844043
C            1.220751292039     0.930530675039    -3.522846351022
C            2.123763889550    -0.098043258642    -2.924543076456
C            3.098513933825     0.326071079131    -1.872884137904
C            3.650535413901    -0.706342066185    -0.945205836663
C            3.794523676583    -0.370331816690     0.502639826797
C            3.376552847533     0.985098110612     0.971759079479
C            2.632926178387     1.103029735527     2.262666619237
C            2.331251218404    -0.139711800333     3.034968957883
C            0.987161240960    -0.285464267445     3.668516760962
C           -0.009164860419     0.816472022318     3.505812913642
C           -1.438621734152     0.465678781502     3.250021703790
C           -1.822522044789    -0.976509671273     3.161860313554
C           -2.803455536430    -1.400734504932     2.119098460635
C           -3.365680054411    -0.365168463794     1.194933098283
C           -3.515922080415    -0.698881254718    -0.252319280324
C           -3.068358225058    -2.047212036083    -0.730350579375
C           -2.285665574330    -2.145989235044    -1.985086028226
C           -2.168564484304    -0.994102389719    -2.978752630361
C           -0.688731112416    -0.756412936420    -3.294905604796
C            0.290338579998    -1.871927142601    -3.223172151502
C            1.728587385480    -1.536737272562    -2.999412113822
C            2.623814623532    -2.568487043740    -2.393433090171
C            3.601531026928    -2.146511423320    -1.347268855227
C            4.155918174764    -3.178966303049    -0.421386273191
C            4.308296191274    -2.841335815874     1.026731633061
C            3.891196975341    -1.485206399832     1.494852194137
C            3.146387453767    -1.367927503707     2.783280919282
C            2.847271095612    -2.609939021509     3.557506869459
C            1.501863384075    -2.755847011797     4.191797725529
C            0.505237676270    -1.654336858574     4.027875716186
C           -0.922089254084    -2.006824445628     3.767087195972
C           -1.302285696740    -3.448451687568     3.675961094333
C           -2.276109852362    -3.873578642670     2.625651126402
C           -2.839221509932    -2.838980680517     1.706513198479
C           -2.984556764664    -3.168010432031     0.258655731545
C           -2.585298278259    -4.526099585926    -0.215207665617
C           -1.844269064185    -4.643705990623    -1.507095745580
C           -1.535623373336    -3.400342406993    -2.274446250197
C           -0.191384865057    -3.263199194909    -2.922760306870
C            0.803391577201    -4.360481280919    -2.748674153155
C            2.234879332969    -4.008767904009    -2.480994536317
C            3.127630172171    -5.037275790915    -1.871067217423
C            4.106535759517    -4.615839252575    -0.823791216096
C            4.665456694456    -5.649747750854     0.101909112583
C            4.819818015092    -5.312506502787     1.546548625008
C            4.405311192669    -3.954467746472     2.017508770259
C            3.662400127932    -3.836279415800     3.307674455433
C            3.362288269731    -5.079566347156     4.083666089650
C            2.019272510166    -5.225403407664     4.716081443972
C            1.020897710130    -4.123196815031     4.550084949764
C           -0.405806225117    -4.476104158026     4.285111799839
C           -0.787089082438    -5.918800056281     4.192855045007
C           -1.747102098039    -6.346372925673     3.134248922031
C           -2.316421704897    -5.310566679671     2.217405522222
C           -2.489645051958    -5.642868714843     0.772941399061
C           -2.092042204668    -7.003167528271     0.293503315046
C           -1.346933574206    -7.119381936822    -0.993484110703
C           -1.033036847086    -5.872245206382    -1.759867775904
C            0.317748570046    -5.728195198584    -2.381117575844
C            1.312446987182    -6.831718269948    -2.207418685294
C            2.741452137042    -6.480188393101    -1.958971733051
C            3.641711176894    -7.508205499674    -1.355180719123
C            4.616645184697    -7.087832502660    -0.300387867117
C            5.162348660313    -8.124943534629     0.622099244996
C            5.328971091568    -7.782471998669     2.071451575156
C            4.917782486806    -6.427135913899     2.537698510312
C            4.175275374423    -6.308550871313     3.831923621202
C            3.877553048642    -7.550623788211     4.601900392151
C            2.525361184535    -7.700119806721     5.230987343060
C            1.537202742709    -6.594067269781     5.072496985646
C            0.106002467682    -6.944399677528     4.812154327280
C           -0.270376333669    -8.382561353358     4.724612924273
C           -1.193677976354    -8.817914122306     3.627946326935
C           -1.779596862057    -7.783201647527     2.725206923123
C           -1.993842522842    -8.120987966981     1.282938181660
C           -1.623055817281    -9.486754171460     0.803434707345
C           -0.856771808220    -9.599159197392    -0.487276716936
C           -0.533395342306    -8.348754482244    -1.239304101786
C            0.831261900527    -8.198301628355    -1.837600371504
C            1.824046871860    -9.297640899669    -1.654021094574
C            3.264496995048    -8.946324126444    -1.445825839387
C            4.224138882353    -9.965561772198    -0.897957558297
C            5.131355130556    -9.560305580379     0.183711070388
C            5.471069859077    -8.873070228978     3.094772788962
C            4.735714983561    -8.759446215435     4.360896208293
C            2.020130885065    -9.057164522710     5.628455717751
C            0.601146064431    -9.383884639244     5.430446501667
C           -1.231703953070   -10.250377816069     3.206138351785
C           -1.590798696374   -10.606203616897     1.819217402435
C           -0.040191100823   -10.827110327395    -0.783614167823
C            1.328730356547   -10.660253544595    -1.291287442739
H           -1.690786917362   -12.777825127973     1.557995863898
H           -3.130826546903   -12.042154416883     2.361227151754
H           -2.889738112581   -11.842659656391     0.583458150352
H           -0.088598239232    10.438275632603    -5.879864649917
H            1.562151326692    11.166388370302    -4.078216398627
H            1.801065150322    11.758070519485    -1.534077836191
H            0.536823398530    11.961117943483     0.673686450514
H           -1.813020208347    11.713445884099     1.800807567075
H           -4.256422343771    11.109516162863     1.378087431402
H           -5.963106542798    10.367402143302    -0.489336626380
H           -6.211266746883     9.797234782561    -2.963028472928
H           -4.911688904148     9.577272508214    -5.244592166292
H           -2.612477204086     9.829323417630    -6.319578326400
H            4.456939294703   -10.853410373384    -1.489504167662
H            5.916293498898   -10.242141309913     0.515690424778
H            6.293515703949    -9.585837641787     3.009839644784
H            4.996185514178    -9.410314269160     5.197536321048
H            2.638338591830    -9.696753724399     6.261151790425
H            0.136329942803   -10.152871490639     6.051071726472
H           -0.824627040420   -11.016902455637     3.867762329901
H           -0.543602998905   -11.788595125898    -0.902318155721
H            2.026689108065   -11.497925434311    -1.254229324191
H           -2.675057621715    -1.296399202240    -3.911431727501
}
memory 60 GB
set reference uhf
set basis 6-31G(d)
set maxiter 1000
optimize('pbe')
