molecule{
C    0.00000000  0.00000000  0.00000000
C    3.79524275  20.6564926 -7.34891010
C    4.77925302  20.9446225 -6.42573427
C    5.16988035  19.9602718 -5.45577008
C    5.35905466  20.2962175 -4.05805617
C    5.15160675  21.6268937 -3.55875620
C    4.48900365  21.8331367 -2.36469841
C    4.00652940  20.7207502 -1.59691669
C    2.71995507  20.7316283 -0.92749459
C    1.83001352  21.8567695 -0.97975045
C    0.47017206  21.6688719 -1.12589755
C   -0.07472685  20.3443058 -1.24221108
C   -1.10865883  20.0191869 -2.20365339
C   -1.65629080  21.0068143 -3.08995538
C   -1.84403336  20.7139250 -4.42544488
C   -1.50135975  19.4180971 -4.93798915
C   -0.80329938  19.2483870 -6.19864870
C   -0.38554172  20.3577998 -7.00785729
C    0.84110168  20.3445221 -7.64459982
C    1.72490370  19.2215743 -7.50793308
C    3.15954603  19.3696779 -7.35277822
C    3.89140994  18.2933754 -6.75944955
C    4.91387414  18.5955319 -5.78981708
C    5.32724082  17.5481765 -4.89601719
C    5.53147993  17.8820380 -3.52650011
C    5.30107575  19.2380122 -3.10437562
C    4.62140520  19.4568705 -1.85279929
C    4.23938438  18.3111250 -1.08012000
C    2.97476659  18.3211771 -0.42554409
C    2.13913583  19.4777535 -0.56568886
C    0.72181683  19.2770098 -0.73223755
C    0.22635468  17.9271276 -0.78309408
C   -0.77678988  17.6035203 -1.74041435
C   -1.25280774  18.6531503 -2.59864319
C   -1.45867008  18.3470933 -3.99102795
C   -1.20011615  17.0057147 -4.43566644
C   -0.54201946  16.8422952 -5.69020067
C   -0.14581019  18.0054984 -6.43285746
C    1.13446502  17.9921997 -7.09445844
C    1.95169523  16.8171311 -6.97319744
C    3.35783577  16.9601578 -6.78751872
C    4.11232658  15.8638257 -6.22740112
C    5.11749856  16.1694083 -5.25087343
C    5.53467021  15.1319813 -4.36068496
C    5.76697052  15.4787753 -2.98403995
C    5.54074616  16.8263307 -2.55891641
C    4.89387768  17.0532652 -1.29941204
C    4.52581870  15.9292577 -0.50491958
C    3.24715573  15.9384587  0.15484944
C    2.40059987  17.0725408 -0.01224515
C    0.99615798  16.8627831 -0.20983590
C    0.50247399  15.5204925 -0.26687580
C   -0.48879049  15.1829595 -1.25264963
C   -0.96159164  16.2241259 -2.11287350
C   -1.19172287  15.9165674 -3.49177065
C   -0.95323381  14.5778234 -3.94988191
C   -0.35146164  14.4330141 -5.24478078
C    0.06230906  15.5824750 -5.98088518
C    1.34504267  15.5719996 -6.63207973
C    2.17065618  14.4135900 -6.51928871
C    3.58454357  14.5348560 -6.28077906
C    4.30223498  13.4284216 -5.67569763
C    5.29206379  13.7498469 -4.69221410
C    5.71493515  12.7165283 -3.78816004
C    5.98937444  13.0767201 -2.42777772
C    5.77830395  14.4345779 -2.00916792
C    5.16300772  14.6706998 -0.73974078
C    4.79973662  13.5449325  0.06783989
C    3.52657317  13.5528867  0.72184593
C    2.67103478  14.6877424  0.54223398
C    1.27776678  14.4667076  0.30752148
C    0.80149942  13.1115209  0.23419267
C   -0.14836952  12.7593160 -0.77681689
C   -0.62819892  13.8028967 -1.64325910
C   -0.86781211  13.4815547 -3.01237305
C   -0.59227973  12.1220361 -3.48834726
C   -0.10281541  12.0375454 -4.80427598
C    0.25537205  13.1792420 -5.53630995
C    1.55341125  13.1912827 -6.18107995
C    2.35829545  12.0275563 -5.99936562
C    3.77132285  12.0742093 -5.70944006
C    4.49257553  10.9704884 -5.09285474
C    5.48953131  11.3301746 -4.10940709
C    6.00163023  10.3319872 -3.20142654
C    6.27285655  10.7023281 -1.84578098
C    6.04686836  12.0512992 -1.43792757
C    5.44524573  12.2925214 -0.15501323
C    5.08323926  11.1706261  0.64870258
C    3.80875928  11.1776111  1.30024096
C    2.95626215  12.3074557  1.12077273
C    1.56112059  12.0784887  0.86175405
C    1.08317991  10.7355460  0.81203642
C    0.13455612  10.3720439 -0.19985141
C   -0.29418787  11.3713030 -1.14470064
C   -0.51779977  11.0077986 -2.52598505
C   -0.29424981  9.61098077 -2.86948477
C    0.33000881  9.19148040 -4.10174055
C    1.55204575  11.0087498 -5.53130833
C    0.92897255  10.0925742 -4.96051085
C    2.74817009  9.15429630 -5.39545845
C    4.06406699  9.55967631 -5.10284565
C    4.90686002  8.53780690 -4.47372535
C    5.87644628  8.93121307 -3.50418141
C    6.40977703  7.94875871 -2.59485325
C    6.63386380  8.33011678 -1.22639407
C    6.35244346  9.67654656 -0.84071282
C    5.73188914  9.91306748  0.42578787
C    5.37626906  8.79261466  1.24114864
C    4.09366950  8.79882095  1.89323325
C    3.23593345  9.92704735  1.69982262
C    1.84375248  9.70299713  1.45972976
C    1.35307809  8.36153979  1.45954139
C    0.36926811  7.99023553  0.47790898
C   -0.05529187  8.97687984 -0.48307156
C   -0.27632729  8.58159907 -1.84160059
C   -0.04431796  7.18832418 -2.17426380
C    0.60885983  6.85825089 -3.41291487
C    0.95809581  7.92153851 -4.27213655
C    2.23883937  7.92429102 -4.95213978
C    3.11958189  6.83344106 -4.70690180
C    4.50156152  7.15097268 -4.48683283
C    5.30528774  6.14691891 -3.85084068
C    6.28591554  6.55455074 -2.89089906
C    6.77860766  5.57532722 -1.95615629
C    6.97087589  5.95863256 -0.59840053
C    6.68838956  7.31210890 -0.22175192
C    6.02929185  7.54363963  1.03034543
C    5.65444269  6.41208092  1.82979510
C    4.38327075  6.41691187  2.47190438
C    3.52725410  7.55603688  2.30038125
C    2.12537418  7.33625539  2.09308988
C    1.64150845  5.98877788  2.10153868
C    0.64850892  5.61813763  1.14993786
C    0.18604906  6.59962845  0.20713420
C   -0.01715793  6.18833607 -1.15114844
C    0.26872984  4.81422256 -1.49423631
C    0.95338620  4.52955668 -2.71019549
C    1.29545012  5.61715960 -3.56835157
C    2.57558604  5.60664624 -4.22314463
C    3.45498257  4.51207120 -3.97180275
C    4.84596115  4.78173442 -3.80961486
C    5.65364979  3.76507210 -3.19520296
C    6.65981990  4.17387273 -2.24955782
C    7.19076855  3.20612537 -1.34162613
C    7.36945479  3.59759693  0.04179516
C    7.02186278  4.93134496  0.40760433
C    6.32789871  5.15905507  1.65006819
C    5.98892190  4.04686255  2.47967260
C    4.69013512  4.04767465  3.12534505
C    3.82924564  5.16675594  2.90534669
C    2.41601076  4.95102053  2.72814734
C    1.90156741  3.62178034  2.78878614
C    0.86941313  3.25063178  1.84360648
C    0.45796187  4.22092176  0.88421337
C    0.26896863  3.79838154 -0.47909765
C    0.48892870  2.42446443 -0.82659527
C    1.23186042  2.15631175 -2.04757788
C    1.63194555  3.27241638 -2.84766657
C    2.91946300  3.26756982 -3.49548794
C    3.78802614  2.15009030 -3.33089690
C    5.20859560  2.40643469 -3.19125969
C    6.10565050  1.43814264 -2.62874207
C    7.07678212  1.82852083 -1.72915818
C    7.43521416  2.63340013  1.10536126
C    6.75757468  2.84947109  2.28837944
C    4.07122131  2.84742093  3.61138233
C    2.71507046  2.64129747  3.44999441
C    0.52618509  1.89175926  1.54559861
C    0.31352970  1.46081275  0.24602130
C    1.93239601  0.92594469 -2.30314531
C    3.17157213  0.92529184 -2.91587758
H    0.90683227 -0.63317944 -0.00979316
H   -0.64601861 -0.38345270  0.80782501
H   -0.52940513 -0.15314069 -0.95402793
H    3.40053523  21.4630184 -7.97455502
H    5.14251915  21.9731588 -6.33882586
H    5.37654313  22.4891787 -4.19366258
H    4.20843025  22.8532256 -2.08485622
H    2.23473785  22.8712017 -1.04908881
H   -0.16713638  22.5391428 -1.30947779
H   -1.77727607  22.0400495 -2.75052697
H   -2.11056072  21.5214265 -5.11435035
H   -0.96850514  21.2838544 -7.00745349
H    1.19284380  21.2603544 -8.12920537
H    5.92824870  0.37026598 -2.78965394
H    7.64702910  1.06124021 -1.19670048
H    7.89080049  1.65456606  0.92760686
H    6.69586885  2.03727751  3.01927308
H    4.69130570  2.02311467  3.97673642
H    2.29691593  1.65790405  3.68594591
H    0.53637775  1.14192651  2.34546784
H    1.55894306 -0.01456157 -1.89747142
H    3.73550614 -0.01180956 -2.95551674
H    6.30412690  11.2890506 -4.76415024
}
memory 65 GB
set basis 6-31G(d)
set reference uhf
set opt_type ts
optimize('pbe')
