molecule{
C           -1.773825235259   -11.637763125063     1.446780780036
C            0.153577020048     9.379657267307    -4.860732609745
C            1.050012612487     9.771059213360    -3.887463145145
C            1.540477491605     8.823038667405    -2.925910665891
C            1.677380906599     9.147621485150    -1.520755554341
C            1.331673239128    10.439102908414    -0.995091514333
C            0.647471996655    10.548101462187     0.198293240709
C            0.270975971678     9.371553350368     0.931641797991
C           -1.029553160027     9.232058286098     1.554184569156
C           -2.029351889278    10.260993367201     1.479785981940
C           -3.349882355556     9.936833673720     1.244917662752
C           -3.742957349258     8.565960767124     1.071406190257
C           -4.683992012907     8.155243468612     0.049593162981
C           -5.286868923556     9.091473932250    -0.858082227194
C           -5.417230252504     8.782630505219    -2.196652020160
C           -4.952394369018     7.520454601976    -2.701220120093
C           -4.234122848344     7.405932434179    -3.954017463336
C           -3.938709565150     8.546891146091    -4.775492043558
C           -2.699749035253     8.679591313787    -5.368343826310
C           -1.688139846522     7.678502737757    -5.172401295610
C           -0.301809254687     8.018637447845    -4.925758976771
C            0.531179062144     7.036131064051    -4.309364507498
C            1.467312041270     7.444958458245    -3.292907596056
C            1.987863354087     6.441789920065    -2.406865856587
C            2.122718696526     6.760871129133    -1.025602941572
C            1.731735137057     8.070537337679    -0.584721326513
C            1.017131512105     8.184336849282     0.661522099361
C            0.734936823862     6.981849819714     1.394256736747
C           -0.543534272846     6.844677680903     2.006159906065
C           -1.489455680083     7.915476662615     1.861165122977
C           -2.868559954450     7.576916667321     1.615768269413
C           -3.220895016037     6.187382148179     1.529438313875
C           -4.145985627393     5.783651601142     0.525001702219
C           -4.682468769259     6.785268610945    -0.353293693772
C           -4.818871151696     6.462700162112    -1.751202862046
C           -4.411340270982     5.157149462533    -2.189280357591
C           -3.705203342132     5.044595038806    -3.420755055533
C           -3.434159942256     6.242131524586    -4.165678714386
C           -2.140325757837     6.380597596512    -4.784953634231
C           -1.192874332040     5.313586257078    -4.622792109723
C            0.169874649868     5.647993703054    -4.380171871199
C            1.033616616884     4.653059893490    -3.808383611618
C            1.964842130569     5.059790669595    -2.797339804737
C            2.499350657302     4.069850198372    -1.916601028236
C            2.635961947775     4.392366322675    -0.520799695384
C            2.230993221685     5.688474994490    -0.076356942496
C            1.520214817399     5.801673427200     1.163345566231
C            1.243201834445     4.614148874302     1.908112662658
C           -0.048915695081     4.475374741821     2.526186768839
C           -0.998404300952     5.531338240815     2.368333807848
C           -2.370185967180     5.194547994000     2.124015740165
C           -2.736215503451     3.815575857576     2.047288188870
C           -3.671232506150     3.407656020481     1.032316460281
C           -4.192957920741     4.399195602137     0.145702306409
C           -4.328905657437     4.078261466484    -1.244800242426
C           -3.938122832595     2.778747613040    -1.692010448591
C           -3.224593301713     2.664931875013    -2.936537066751
C           -2.937682994763     3.856594968406    -3.670764781668
C           -1.650547984138     3.994364122532    -4.286521890466
C           -0.702675856273     2.934966481646    -4.142481109504
C            0.674446029727     3.272955824455    -3.897122085645
C            1.527500509118     2.283775444837    -3.308291165068
C            2.457028439056     2.689797604702    -2.299442805783
C            2.989592166809     1.692622516834    -1.411837582156
C            3.125960538887     2.013754979363    -0.022327063697
C            2.724139898798     3.319390841995     0.424590419953
C            2.014848944737     3.432297257853     1.661892726749
C            1.733391793426     2.235293125510     2.406350470557
C            0.446878979228     2.096910195671     3.021282246334
C           -0.506877104806     3.161326292532     2.867630688456
C           -1.875875217773     2.825216346521     2.623532370740
C           -2.240091720002     1.437167375478     2.541839264620
C           -3.171180768936     1.031245322745     1.531500881517
C           -3.701098625389     2.029114016877     0.643075814956
C           -3.837197828196     1.708698106361    -0.744586048857
C           -3.439081982712     0.402166408767    -1.192428986073
C           -2.728678316867     0.288770730730    -2.431394858404
C           -2.444436067697     1.486665461553    -3.173266821586
C           -1.159704001303     1.624210620871    -3.787425978147
C           -0.206613275562     0.558880333880    -3.636270148407
C            1.164319129083     0.895487502889    -3.391693144103
C            2.022892132111    -0.093025371267    -2.814361578539
C            2.958608338350     0.315615130151    -1.799891906782
C            3.483044977792    -0.676789925423    -0.912422325800
C            3.619763938598    -0.355624310717     0.477061906751
C            3.226421400494     0.945388244189     0.924375942939
C            2.512701003426     1.058792217370     2.169222042356
C            2.226722171436    -0.134660618162     2.905419980192
C            0.940099084711    -0.273302640813     3.520060556874
C           -0.009584336174     0.787405453238     3.374477712164
C           -1.386883812257     0.449293197588     3.128371442551
C           -1.746740879020    -0.932866900847     3.039768588087
C           -2.678239231796    -1.338362648000     2.029640974623
C           -3.213089554251    -0.346583656953     1.147865193414
C           -3.350812896152    -0.669325938895    -0.248166904398
C           -2.947891787361    -1.968159329716    -0.693993086092
C           -2.237270462503    -2.081606045889    -1.932810690365
C           -1.957726994171    -0.891562048793    -2.676956627511
C           -0.664747685125    -0.752964118448    -3.294110090946
C            0.285682379578    -1.811036710325    -3.135822577027
C            1.656539912895    -1.474303737816    -2.891058644928
C            2.514884041635    -2.467209812235    -2.305261608295
C            3.445809007414    -2.060929975211    -1.297853057458
C            3.983263667903    -3.053402917614    -0.415325902012
C            4.120917141101    -2.730772931423     0.980395515768
C            3.714191029993    -1.431269957530     1.425820108802
C            3.004304897723    -1.319001878964     2.662828793580
C            2.726466035647    -2.510830446076     3.408324047055
C            1.433813364012    -2.650564173979     4.025079019351
C            0.482083308116    -1.590907227530     3.867250396291
C           -0.886875785529    -1.926776994967     3.622234176580
C           -1.253556901708    -3.309474376592     3.544625563054
C           -2.189657351493    -3.715745152950     2.530005204243
C           -2.713967564856    -2.721812933727     1.642186759209
C           -2.852064969367    -3.043603871972     0.254858181129
C           -2.461683807967    -4.347550375302    -0.193443691581
C           -1.747453617647    -4.461366563985    -1.437496428497
C           -1.458634438056    -3.265882878450    -2.172913212565
C           -0.172743215050    -3.127491130887    -2.784813194113
C            0.777528360768    -4.189313383956    -2.636972878133
C            2.154512132071    -3.851232889830    -2.392038695740
C            3.006298172459    -4.836715099410    -1.805012159105
C            3.940612509723    -4.429512636214    -0.796947003391
C            4.461546614061    -5.427883606946     0.094552645743
C            4.598262365228    -5.108561902426     1.475479880512
C            4.209268138672    -3.800565571443     1.923350412288
C            3.496971649504    -3.688751264544     3.162370015919
C            3.206797432202    -4.891007924179     3.893043037335
C            1.926819530667    -5.030487978344     4.501449477740
C            0.976762958975    -3.961717450161     4.363310026639
C           -0.395008551798    -4.297798988699     4.117899697160
C           -0.750332566603    -5.685807468525     4.022199213108
C           -1.676499313770    -6.085737530083     3.017261870863
C           -2.220939055626    -5.089447669781     2.140479572532
C           -2.360244284092    -5.414198815857     0.751954216305
C           -1.949856292334    -6.718669079260     0.309317964814
C           -1.242199578751    -6.829916464435    -0.919767607940
C           -0.967805729720    -5.635892041527    -1.670653110242
C            0.321136733465    -5.495741985180    -2.280496852390
C            1.272687280012    -6.556572920223    -2.109083465224
C            2.636452535436    -6.222743749679    -1.871288460049
C            3.495712974640    -7.220836175684    -1.299133273978
C            4.436372205717    -6.811926210830    -0.287490101898
C            5.003419776337    -7.797652068880     0.576174517084
C            5.144697612745    -7.472020884041     1.980545175631
C            4.705579971279    -6.185896347555     2.418918746187
C            3.988168213260    -6.074047667483     3.663829742757
C            3.732994637141    -7.252721607818     4.428416804051
C            2.428620525022    -7.397539448815     5.041564850771
C            1.477261321206    -6.349084120729     4.852795587542
C            0.099014636956    -6.686832967063     4.603871692900
C           -0.284353621224    -8.062141364120     4.548888376808
C           -1.236012017756    -8.463567148877     3.535797518932
C           -1.723075499188    -7.468157178563     2.640222309346
C           -1.864826290814    -7.802934587727     1.247186346365
C           -1.531655486479    -9.121360503142     0.797604818965
C           -0.794540421775    -9.228037017425    -0.448991432708
C           -0.474754378449    -8.019897010970    -1.151082986780
C            0.820850113186    -7.875711155082    -1.765106612620
C            1.766644210868    -8.939641066719    -1.661381239918
C            3.152619163167    -8.601668773006    -1.415326360082
C            4.085310357107    -9.545660602283    -0.865653517859
C            4.986820655583    -9.154106951013     0.102922334297
C            5.281158530267    -8.483459581985     2.991701458216
C            4.593867385909    -8.376612505534     4.183262573388
C            1.908629476624    -8.677704576174     5.435372839958
C            0.589420333588    -9.001991427474     5.192769282003
C           -1.436502636035    -9.822769075186     3.127694173417
C           -1.608512856919   -10.173845460041     1.798236381113
C           -0.017745212488   -10.383103072921    -0.818376636511
C            1.227052236311   -10.241816173705    -1.397722448515
H           -0.805138271272   -12.161563554223     1.347153637534
H           -2.332182062167   -12.152188228456     2.246995648017
H           -2.332368527545   -11.776301202619     0.507083498449
H           -0.319562182114    10.144489873393    -5.484010901547
H            1.265631082290    10.836596122066    -3.763142678062
H            1.474519306280    11.334403448594    -1.607738231513
H            0.264674883151    11.527083430281     0.502212763725
H           -1.729988959800    11.313239853240     1.458267598203
H           -4.064983043971    10.740029794056     1.042893913964
H           -5.508095351095    10.110081113227    -0.525220102556
H           -5.738711758399     9.563974677971    -2.891967759160
H           -4.637444026650     9.388085911023    -4.813913864746
H           -2.446720583387     9.622697454368    -5.862141184900
H            3.986238427379   -10.610169701317    -1.098952419677
H            5.581511128855    -9.917816019395     0.613189626686
H            5.809264671043    -9.414757547589     2.765629178103
H            4.594045778438    -9.225722752555     4.873406016469
H            2.589740792956    -9.458295772848     5.787419546487
H            0.257105248211   -10.032098430502     5.354271637802
H           -1.354322325271   -10.627682673009     3.867414186603
H           -0.342772504127   -11.381776380750    -0.526707542707
H            1.852422195798   -11.130519153902    -1.527534220562
}
set basis 6-31G(d)
memory 20 GB
set reference rhf
optimize('pbe')
