molecule{
0 2
C    0.00000000  0.00000000  0.00000000
C   -0.97622948  0.95261105  0.65640222
C   -1.92270865  0.41892627  1.53470419
C   -2.83169777  1.23774058  2.25969245
C   -3.07116672  2.52757819  1.71664734
C   -2.10432693  3.10430248  0.82397146
C   -0.90859987  2.38533446  0.50768049
C    0.33986626  3.16293930  0.48473105
C    1.63937707  2.58543397  0.63825442
C    2.60732630  3.19668004  1.42582272
C    2.33122739  4.42096525  2.10032420
C    2.76348125  4.67865543  3.47109050
C    3.54617091  3.73883164  4.20665552
C    3.24572598  3.48115799  5.53166534
C    2.15711592  4.14660434  6.17731841
C    1.24004263  3.41926159  7.04224336
C    1.24956912  2.00224273  7.23064320
C    0.05681798  1.27920939  7.25544955
C   -1.21026803  1.92858638  7.11427979
C   -2.32839878  1.40605168  6.32042443
C   -2.24379413  0.12264543  5.71526122
C   -2.66330477 -0.07754983  4.40567256
C   -3.19049987  1.00864634  3.65949629
C   -3.70180951  2.11788706  4.40762610
C   -3.27620367  2.33553958  5.76411089
C   -3.51586771  3.64135099  6.36341970
C   -4.52638005  4.52051480  5.83253068
C   -4.93339484  4.27175865  4.45641404
C   -4.34077512  3.20214287  3.71988689
C   -4.04149018  3.38985053  2.33203515
C   -4.36709677  4.62441857  1.71702799
C   -3.41292198  5.21273078  0.80591634
C   -2.18896120  4.51957688  0.57527479
C   -0.97643155  5.27193599  0.54056747
C    0.25725437  4.56611225  0.75633413
C    1.25150460  5.19093717  1.58757842
C    0.93369325  6.45740411  2.19393291
C    1.29551481  6.67355535  3.55826162
C    2.03297604  5.63999724  4.23177097
C    1.72744840  5.39439691  5.61200922
C    0.67278991  6.18054043  6.25084092
C   -0.10776948  5.47600297  7.17565466
C    0.01050686  4.08077515  7.32800249
C   -1.21791063  3.31535090  7.35195370
C   -2.42572859  4.08201963  7.20569168
C   -2.15544710  5.41838809  7.40409613
C   -1.95241252  6.65503634  7.52265536
C   -1.72648601  7.97335113  7.18661277
C   -2.94279375  8.72556615  7.34314762
C   -4.16737740  7.95133222  7.37736279
C   -4.06673570  6.54779065  7.27402657
C   -4.88134223  5.83502929  6.37714575
C   -5.95530902  6.61265237  5.75868213
C   -6.32958848  6.33513080  4.40134594
C   -5.62880877  5.28252898  3.71855972
C   -5.33129914  5.46762152  2.33376367
C   -5.67736034  6.71965048  1.71433899
C   -4.71632475  7.32180299  0.82873971
C   -3.48655763  6.61725513  0.57760456
C   -2.27158663  7.36963028  0.54565976
C   -1.03874300  6.68250095  0.73475218
C   -0.05684996  7.28925208  1.60287292
C   -0.34818939  8.54388604  2.19936276
C    0.00723173  8.75543671  3.57006529
C    0.63441838  7.70262544  4.30270040
C    0.28358708  7.48179904  5.69644730
C   -0.68725184  8.38269887  6.26772391
C   -0.95352744  9.67093537  5.64495709
C   -0.59304481  9.85612938  4.26507726
C   -1.13185830  10.9531325  3.51881754
C   -1.60357291  12.0628862  4.27025739
C   -1.97097003  11.8879868  5.59862967
C   -1.87232948  10.6145051  6.22301954
C   -2.96272347  10.1069563  7.06047222
C   -4.22094559  10.7613971  7.23390053
C   -5.41021151  10.0333022  7.27262731
C   -5.40540547  8.61336299  7.12186825
C   -6.36179660  7.87150036  6.31476947
C   -7.48337851  8.52058642  5.71040269
C   -7.84540221  8.23433088  4.40687964
C   -7.09828805  7.27840343  3.65525789
C   -6.72587221  7.51061847  2.26166218
C   -7.02201691  8.73435345  1.58815384
C   -6.07951294  9.32696334  0.75787007
C   -4.80855339  8.71593273  0.54305108
C   -3.56240120  9.48781386  0.52150703
C   -2.34430141  8.78929334  0.77265793
C   -1.34443950  9.39754384  1.60965854
C   -1.56236537  10.6983213  2.14308116
C   -2.55700093  11.4931191  1.50020162
C   -3.53524264  10.9013291  0.71032620
H   -4.38008616  11.5138049  0.38061113
H   -2.66768138  12.5501490  1.76090740
H   -6.26382309  10.3458627  0.40303541
H   -7.91441811  9.30712403  1.85784029
H   -8.60051848  8.85510153  3.91463340
H   -7.95529409  9.36698552  6.21970137
H   -6.35358318  10.5889308  7.24494029
H   -4.28438741  11.8521621  7.17233745
H   -2.50713153  12.6960606  6.10647842
H   -1.85345911  13.0040573  3.77104487
O   -2.04852677  6.25458799  8.96501564
H   -2.22053936  5.25086897  9.22086678
H   -2.41510995 -1.02049680  3.90854631
H   -1.67349193 -0.66913761  6.21115860
H    0.11750034  0.18683761  7.22397411
H    2.18968725  1.44281320  7.18225705
H    3.73842454  2.64293827  6.03480814
H    4.27315209  3.10349733  3.69137029
H    3.52276071  2.63983310  1.64857024
H    1.84731348  1.58383563  0.26204143
H   -1.85479490 -0.65166884  1.76079485
H    0.86990532 -0.22505486  0.64551244
H   -0.49978241 -0.96139138 -0.20701680
H    0.38169934  0.39167831 -0.95659659
}
set basis 6-31G(d)
memory 4 GB
set reference uhf
set opt_type ts
optimize('pbe')
