molecule{
C            1.084392867145    -4.912401225757    -3.384500717972
C            0.317846778047    -5.491412328954    -2.367952828177
C            0.094339306907    -5.937028192619     0.587317852885
C            0.645979470157    -5.705950620904     1.833871186341
C            2.949406362144    -4.411080064788     3.281129003401
C            4.065249439500    -3.590671423974     3.094496009605
C            5.607125626349    -2.057274554723     1.005517445656
C            5.705073222778    -1.813810427520    -0.352007409305
C            4.553225460492    -2.413878015688    -3.036831469241
C            3.555271428284    -3.098091695656    -3.726434118455
C            2.208390803388    -2.619134628105    -3.733272697396
C            1.030227676737    -3.482317792404    -3.551448645703
C           -0.157366649875    -2.842267142579    -3.079674806769
C           -0.936965643158    -3.462593711641    -2.047844787243
C           -0.521247344322    -4.712089652460    -1.522020031112
C           -0.637393845457    -4.919073307416    -0.080250094949
C           -1.129510872531    -3.834943834391     0.717403205048
C           -0.536261213711    -3.564301457798     2.003130246814
C            0.517882928140    -4.438180907590     2.467395140986
C            1.637045623874    -3.849583650535     3.189448146722
C            1.509287533141    -2.466036570285     3.387480402705
C            2.659603394239    -1.620313864137     3.194335864124
C            3.879775251321    -2.200449120017     2.813923521860
C            4.584621815310    -1.448222812164     1.785734646332
C            3.951544480185    -0.266400945203     1.245542037893
C            4.086837428544    -0.005080769911    -0.165550484027
C            4.797342830565    -0.930442134657    -0.995762378925
C            4.251276701630    -1.219807583838    -2.320893141368
C            3.077055914665    -0.530266023168    -2.723900287819
C            2.050863463025    -1.225737931020    -3.448923215295
C            0.755155041949    -0.609602018944    -3.517011604447
C           -0.382415080367    -1.443779790417    -3.322989105283
C           -1.608808250226    -0.833665928227    -2.937220305211
C           -2.374912025469    -1.462544780779    -1.889595388097
C           -1.870064279677    -2.655699359433    -1.312303830730
C           -1.953175731994    -2.830812506357     0.105377312327
C           -2.529628175738    -1.795283457576     0.901418060399
C           -1.939372526700    -1.471378111595     2.192795553544
C           -0.777777294896    -2.256863933163     2.604214043083
C            0.298208813597    -1.691846973270     3.367476258546
C            0.894313573343    -0.395145946717     3.419397494936
C            0.068504538601     0.750718232229     3.514156804051
C            2.261931895492    -0.248035784221     3.035883085367
C            2.921471046525     0.461613049421     1.977469059991
C            2.414586262250     1.726356576627     1.450643640537
C            2.598807499505     1.967984047796     0.026299397091
C            3.235483988070     0.975077554008    -0.778107370988
C            2.740294448874     0.719823937586    -2.096240538017
C            1.638407483982     1.475620958521    -2.573529811961
C            0.609046986343     0.791307152406    -3.316699418207
C           -0.681009261396     1.388243462783    -3.364540139210
C           -1.820144313308     0.553553750978    -3.169257421896
C           -3.050688229254     1.177055119387    -2.764332448216
C           -3.820180509914     0.536331556779    -1.733827185152
C           -3.300844100811    -0.675080194790    -1.157703255193
C           -3.384811057927    -0.847488492612     0.260433817653
C           -4.029045402633     0.175043485302     1.034610817559
C           -3.488399570665     0.519473185782     2.326121750629
C           -2.282301775079    -0.172329510381     2.768010668505
C           -1.350501226896     0.593600497294     3.545122684546
C           -1.697182410986     1.977303644478     3.728092334426
C           -0.548001983288     2.821585257007     3.530693878864
C            0.612540217133     2.035547018249     3.209511894514
C            1.416810085999     2.544546545513     2.135754175833
C            1.004345315583     3.818224394764     1.556392112179
C            1.196880419889     4.009387374547     0.140305124691
C            1.808142047346     2.961434564626    -0.627158819559
C            1.317135836936     2.708532183268    -1.947095875267
C            0.202845822026     3.483794074808    -2.423486149006
C           -0.835047234071     2.800452003052    -3.144759200607
C           -2.118491149805     3.410997331078    -3.261916291218
C           -3.292063365369     2.551228420605    -3.059636656192
C           -4.566867018203     3.066030159680    -2.679585036223
C           -5.325223119376     2.431828379050    -1.700072796537
C           -4.828036444003     1.264276825105    -1.046971090993
C           -4.960302179399     1.055661698578     0.394808217590
C           -5.649947771792     1.980937639669     1.224057262449
C           -5.160913043119     2.304565034210     2.476058728740
C           -3.947440841490     1.736744737299     2.955992497083
C           -2.980098343928     2.544110956724     3.685229037593
C           -3.087349012936     3.950890950897     3.921901788764
C           -1.971719442118     4.770580239172     3.729474316068
C           -0.736015649075     4.192731669707     3.298762465941
C            0.126946638431     4.729085337928     2.255982620940
C           -0.174874456134     5.965389444524     1.619080448247
C           -0.006080723528     6.122196405257     0.255886067006
C            0.492089733972     5.054811071411    -0.539297916293
C           -0.049738018397     4.766161711901    -1.866967379945
C           -1.145777371494     5.494100250272    -2.419943262548
C           -2.163256745764     4.826980883310    -3.095397723243
H            2.984272920929    -5.965772210427    -3.655491456815
H            1.563129350477    -6.789227033401    -4.323824162961
H            2.244606094997    -5.378783209359    -5.170292627666
H            0.489847934108    -6.550206280918    -2.141786211814
H            0.357227898165    -6.858078298974     0.056292092632
H            1.328151398496    -6.451659363938     2.254482953727
H            3.092397806153    -5.496130635064     3.309320543838
H            5.049129117362    -4.057332454277     2.981313657992
H            6.217602752474    -2.853408635705     1.443650271808
H            6.391595467982    -2.423736373829    -0.948641262984
H            5.526003823376    -2.899791965178    -2.913402118602
H            3.796050709802    -4.082974808148    -4.127000817183
H           -4.883279061740     4.055254494335    -3.025174913551
H           -6.212686730344     2.942578515301    -1.314378702281
H           -6.489821336643     2.557010971421     0.821550544664
H           -5.625758943430     3.128513215461     3.026971631956
H           -4.065790582804     4.419559153058     4.068755193519
H           -2.109784507410     5.856630721316     3.731510961235
H           -0.700204441351     6.746115838253     2.178541327175
H           -0.401072780843     7.024177896511    -0.223311541374
H           -1.292628723884     6.547441915441    -2.162770544429
H           -3.075952574659     5.379061084836    -3.340940395951
}
memory 4 GB
set basis 6-31G(d)
set maxiter 1000
optimize('pbe')
