molecule{
0 2
C    -2.6360700524 -11.5123670108   1.1699305486
C     0.8054688281   9.4652716921  -4.6210538683
C     1.7283704961   9.7658306875  -3.6431096263
C     2.1445240527   8.7602461625  -2.7015682675
C     2.3097047785   9.0432803833  -1.2925271496
C     2.0579398243  10.3451595047  -0.7363556897
C     1.3916568455  10.4750190427   0.4637161996
C     0.9395879643   9.3102074146   1.1754892896
C    -0.3630634260   9.2453184347   1.8012224274
C    -1.2905164305  10.3432954603   1.7601009971
C    -2.6294644274  10.1172674511   1.5227349776
C    -3.1158610155   8.7805997282   1.3103901211
C    -4.0851701398   8.4663099757   0.2846128519
C    -4.6277064601   9.4697391438  -0.5911744424
C    -4.7848901677   9.2115970119  -1.9360605789
C    -4.4125490986   7.9338207496  -2.4810597441
C    -3.7131729501   7.8045469969  -3.7397205509
C    -3.3354888919   8.9441148519  -4.5315916733
C    -2.0936647782   8.9979286291  -5.1273554512
C    -1.1587245834   7.9164337163  -4.9639022018
C     0.2462741625   8.1431169632  -4.7139258309
C     1.0040677129   7.0837857140  -4.1235723407
C     1.9685396596   7.4004093366  -3.0987437764
C     2.4138232774   6.3424685398  -2.2368668241
C     2.5890153399   6.6217853656  -0.8514117696
C     2.2975508803   7.9452018310  -0.3790898745
C     1.6030925742   8.0812387727   0.8763894905
C     1.2435503236   6.8856584482   1.5853764567
C    -0.0415716067   6.8205781939   2.1952856627
C    -0.9121355961   7.9554644942   2.0776029165
C    -2.3107990105   7.7183193567   1.8243878620
C    -2.7556447779   6.3590997365   1.6965038940
C    -3.7090866243   6.0492785977   0.6849903808
C    -4.1824796597   7.1107028587  -0.1575664827
C    -4.3534785338   6.8403947416  -1.5626817225
C    -4.0496963397   5.5223776539  -2.0425482167
C    -3.3640969644   5.3954644641  -3.2846749916
C    -3.0059906926   6.5886442652  -3.9938240784
C    -1.7071640915   6.6443590458  -4.6151654985
C    -0.8423770109   5.5046708865  -4.4860440786
C     0.5398015505   5.7312480869  -4.2267644547
C     1.3186578064   4.6568433415  -3.6670811886
C     2.2807887818   4.9739929628  -2.6531686334
C     2.7540792570   3.9315548374  -1.7981814144
C     2.9411999659   4.2136224253  -0.3996608496
C     2.6333179714   5.5249274933   0.0758191241
C     1.9459135364   5.6600809653   1.3247337969
C     1.5926590571   4.4766948007   2.0461058509
C     0.2922780694   4.4098292744   2.6567901889
C    -0.5853607361   5.5307313731   2.5203343710
C    -1.9728568364   5.2936930604   2.2590959127
C    -2.4275660920   3.9426567639   2.1373213733
C    -3.3843793433   3.6284546554   1.1113015273
C    -3.8491623300   4.6819101844   0.2625697514
C    -4.0298882424   4.4135520106  -1.1299598840
C    -3.7402743905   3.0999727325  -1.6232710045
C    -3.0692670170   2.9712311432  -2.8849433753
C    -2.6891766559   4.1616973847  -3.5784506076
C    -1.3996955495   4.2142727815  -4.1907091789
C    -0.5377108353   3.0711377093  -4.0700037167
C     0.8591283823   3.3110156563  -3.7862040812
C     1.6284593718   2.2534662550  -3.2037977699
C     2.6022177864   2.5681978989  -2.2044605914
C     3.0799906289   1.5178883610  -1.3470501872
C     3.2710666628   1.7976144758   0.0438510041
C     2.9702206613   3.1180936294   0.5234044180
C     2.2833558970   3.2518866396   1.7716162318
C     1.9219234778   2.0580488895   2.4874788311
C     0.6263684431   1.9915123709   3.0913556556
C    -0.2537121343   3.1203445539   2.9599061847
C    -1.6386557159   2.8825660215   2.6887391057
C    -2.0867846365   1.5237943701   2.5521491861
C    -3.0252272544   1.2114361304   1.5226088962
C    -3.4981663310   2.2677332030   0.6749460283
C    -3.6770973825   1.9982119241  -0.7167267917
C    -3.3767615620   0.6785259843  -1.2245278195
C    -2.8023205267   0.5458952428  -2.5050761946
C    -2.4136660962   1.7358512997  -3.1925572559
C    -1.0987180912   1.7957383781  -3.7780449532
C    -0.2238809537   0.6538497525  -3.5814691373
C     1.1609214161   0.8991386641  -3.3023673669
C     1.9502715167  -0.1578079661  -2.7568188325
C     2.9406221619   0.1574698213  -1.7613809184
C     3.4075979903  -0.8908614382  -0.9102276768
C     3.5996233513  -0.6141236566   0.4811736499
C     3.3090061574   0.7019139506   0.9655046218
C     2.6178606438   0.8346486081   2.2184695064
C     2.2501667551  -0.3569044725   2.9248468489
C     0.9544284247  -0.4243495590   3.5282881223
C     0.0786909628   0.7032951495   3.3998657547
C    -1.3068128065   0.4652112114   3.1218856911
C    -1.7592202037  -0.8877204820   2.9877608917
C    -2.6979469542  -1.2008744810   1.9586321796
C    -3.1485969664  -0.1520878867   1.0854047086
C    -3.3408891571  -0.4289314192  -0.2995055260
C    -3.0485060952  -1.7568247859  -0.7841744871
C    -2.4679384601  -1.9315206181  -2.0569420531
C    -2.2622600204  -0.7762820127  -3.0209065692
C    -0.7588102900  -0.6281864487  -3.3247403018
C     0.0996378776  -1.7360116025  -3.1468331198
C     1.4861609591  -1.5035973740  -2.8651954113
C     2.2819515770  -2.5706928407  -2.3267602217
C     3.2577128779  -2.2578983384  -1.3288550075
C     3.7393199014  -3.3081660578  -0.4853692701
C     3.9290255592  -3.0318446653   0.9140461201
C     3.6291728610  -1.7180421792   1.4003373861
C     2.9416687993  -1.5871489019   2.6485540558
C     2.5787019832  -2.7771617012   3.3594537875
C     1.2772018348  -2.8438552427   3.9677746861
C     0.4031467281  -1.7162121413   3.8341168684
C    -0.9820739222  -1.9520470312   3.5619982116
C    -1.4439334134  -3.3020981111   3.4458869138
C    -2.4021926410  -3.6160705240   2.4210191944
C    -2.8435114437  -2.5677377116   1.5493587737
C    -3.0229740919  -2.8507878634   0.1602806169
C    -2.7597838726  -4.1743887435  -0.3077431437
C    -2.0858677212  -4.3212873640  -1.5656738304
C    -1.7547160708  -3.1429608036  -2.3092522757
C    -0.4414210236  -3.0597933615  -2.8959591802
C     0.4421783395  -4.1666409139  -2.7524543011
C     1.8385821806  -3.9245569315  -2.4693585339
C     2.6244380330  -4.9787859642  -1.9152003269
C     3.5913611561  -4.6659837703  -0.9044114250
C     4.0578867425  -5.7218907936  -0.0495494484
C     4.2369722724  -5.4507531884   1.3370227683
C     3.9500731976  -4.1306898741   1.8264404244
C     3.2608154299  -4.0016687194   3.0750666732
C     2.8869632718  -5.2010710799   3.7720364474
C     1.5990797835  -5.2671404996   4.3765311491
C     0.7264157372  -4.1305078678   4.2639741682
C    -0.6614219449  -4.3638687114   4.0014773015
C    -1.1156424797  -5.7208460752   3.8751087459
C    -2.0716392543  -6.0304820747   2.8658536148
C    -2.5418700624  -4.9777928001   2.0090799184
C    -2.7238178727  -5.2646306758   0.6210121343
C    -2.4179734286  -6.5865985919   0.1484733871
C    -1.7289341652  -6.7241365949  -1.0889153280
C    -1.3791581276  -5.5375632582  -1.8202821531
C    -0.0896343195  -5.4620324747  -2.4291728990
C     0.7936761939  -6.5836924770  -2.2795432241
C     2.1748565853  -6.3423342120  -2.0280138713
C     2.9707183149  -7.4060388524  -1.4891488540
C     3.9415318155  -7.0886532266  -0.4709755716
C     4.4485296595  -8.1329212880   0.3597499088
C     4.6181549919  -7.8595206178   1.7696345029
C     4.2774343431  -6.5577718990   2.2489986140
C     3.5793307203  -6.4297221245   3.5032460787
C     3.2409457652  -7.6096855424   4.2334256065
C     1.9332763281  -7.6778480359   4.8472141536
C     1.0573324092  -6.5594809595   4.6898338488
C    -0.3407188963  -6.7930606068   4.4324777763
C    -0.8198541199  -8.1375333034   4.3444539053
C    -1.8015268878  -8.4462689310   3.3323293093
C    -2.2241536789  -7.3966247949   2.4633020061
C    -2.4013638303  -7.6906907093   1.0652589100
C    -2.1630327771  -9.0187516620   0.5874238766
C    -1.4328881093  -9.1511616411  -0.6581790744
C    -1.0406841748  -7.9545614212  -1.3449817269
C     0.2592337210  -7.8791988865  -1.9614687641
C     1.1364552527  -9.0029813751  -1.8783710824
C     2.5402240591  -8.7609387556  -1.6382848451
C     3.4203903268  -9.7774962442  -1.1271320341
C     4.3494396507  -9.4730136253  -0.1563194687
C     4.6873961504  -8.9082455162   2.7510525224
C     4.0171472569  -8.7866626309   3.9494919386
C     1.3244230809  -8.9287298323   5.2118479697
C    -0.0131996910  -9.1523800568   4.9648919750
C    -2.1100827270  -9.7796313315   2.8989543098
C    -2.3187110884 -10.0856572081   1.5653801787
C    -0.7257440477 -10.3469804226  -1.0373730958
C     0.5204560212 -10.2747779744  -1.6232174643
H    -1.7354286755 -12.1123048360   0.9738306792
H    -3.1749154232 -12.0131956197   1.9838029423
H    -3.2737276566 -11.5631150514   0.2807832318
H     0.3938420921  10.2742015868  -5.2323161769
H     2.0321881225  10.8070107391  -3.4983950523
H     2.2604923318  11.2404115603  -1.3319671416
H     1.0792880793  11.4704487727   0.7936733805
H    -0.9177353023  11.3720536953   1.7698050449
H    -3.2909258830  10.9716147417   1.3499321123
H    -4.7784583167  10.4894962211  -0.2242081592
H    -5.0568249916  10.0320246673  -2.6071570658
H    -3.9706965709   9.8350463174  -4.5432182239
H    -1.7704678066   9.9308258726  -5.5991421596
H     3.2598622509 -10.8245982889  -1.4014835737
H     4.9087739952 -10.2838253039   0.3201145572
H     5.1467451784  -9.8672568865   2.4929891762
H     3.9593493655  -9.6520985238   4.6165808366
H     1.9506570687  -9.7618284818   5.5448604032
H    -0.4194721006 -10.1591263862   5.1026952479
H    -2.0948421995 -10.6018229097   3.6239783960
H    -1.1048410844 -11.3265610303  -0.7445858237
H     1.0929795485 -11.1970037063  -1.7603335982
H    -2.7997842844  -1.0200586829  -3.9683979346
}
memory 65 GB
set reference uhf
set basis 6-31G(d)
set maxiter 1000
optimize('pbe')
